p cnf 226 388
e 1 2 3 4 5 6 7 8 9 10 11 12 13 14 15 16 17 18 19 20 21 22 23 24 25 26 27 28 29 30 31 32 33 34 35 36 37 38 39 40 41 42 43 44 45 46 47 48 49 50 51 52 53 54 55 56 57 58 59 60 61 62 63 64 65 66 67 68 69 70 71 72 73 0
a 74 75 76 77 78 79 80 81 82 83 84 85 86 87 88 89 90 91 92 93 94 95 96 97 98 99 100 101 102 103 104 105 106 107 108 109 110 111 112 113 114 115 116 117 118 119 120 121 122 123 0
e 124 125 126 127 128 129 130 131 132 133 134 135 136 137 138 139 140 141 142 143 144 145 146 147 148 149 150 151 152 153 154 155 156 157 158 159 160 161 162 163 164 165 166 167 168 169 170 171 172 173 174 175 176 177 178 179 180 181 182 183 184 185 186 187 188 189 190 191 192 193 194 195 196 197 198 199 200 201 202 203 204 205 206 207 208 209 210 211 212 213 214 215 216 217 218 219 220 221 222 223 224 225 226 0
-226 -74 0
-226 -75 0
-226 -76 0
-225 75 0
-225 -77 0
-225 -76 0
-224 75 0
-224 77 0
-224 -76 0
-223 -74 0
-223 76 0
-223 -78 0
-222 -74 0
-222 76 0
-222 78 0
-221 74 0
-221 79 0
-221 -80 0
-220 74 0
-220 79 0
-220 80 0
-219 74 0
-219 -79 0
-219 81 0
-218 82 0
-218 -79 0
-218 -81 0
-217 -82 0
-217 74 0
-217 -83 0
-216 -82 0
-216 83 0
-216 84 0
-215 -82 0
-215 83 0
-215 80 0
-214 -80 0
-214 -84 0
-214 -85 0
-213 86 0
-213 -80 0
-213 85 0
-212 -86 0
-212 87 0
-212 85 0
-211 -86 0
-211 -87 0
-211 88 0
-210 -87 0
-210 -88 0
-210 -89 0
-209 90 0
-209 -88 0
-209 89 0
-208 -87 0
-208 -91 0
-208 89 0
-207 92 0
-207 -90 0
-207 91 0
-206 -92 0
-206 91 0
-206 93 0
-205 -92 0
-205 82 0
-205 93 0
-204 91 0
-204 94 0
-204 -93 0
-203 -87 0
-203 95 0
-203 -93 0
-202 87 0
-202 -94 0
-202 95 0
-201 -96 0
-201 -95 0
-201 -97 0
-200 96 0
-200 -94 0
-200 -97 0
-199 76 0
-199 -95 0
-199 97 0
-198 -98 0
-198 -95 0
-198 97 0
-197 98 0
-197 97 0
-197 -99 0
-196 -100 0
-196 -101 0
-196 99 0
-195 98 0
-195 -101 0
-195 99 0
-194 102 0
-194 98 0
-194 101 0
-193 -102 0
-193 -103 0
-193 101 0
-192 -102 0
-192 104 0
-192 103 0
-191 -90 0
-191 -104 0
-191 -105 0
-190 90 0
-190 -105 0
-190 103 0
-189 -104 0
-189 105 0
-189 106 0
-188 105 0
-188 -106 0
-188 -107 0
-187 108 0
-187 -106 0
-187 107 0
-186 -108 0
-186 109 0
-186 107 0
-185 -110 0
-185 -108 0
-185 -109 0
-184 -100 0
-184 110 0
-184 -109 0
-183 100 0
-183 -111 0
-183 110 0
-182 100 0
-182 111 0
-182 112 0
-181 113 0
-181 -81 0
-181 -112 0
-180 113 0
-180 111 0
-180 81 0
-179 -96 0
-179 111 0
-179 -112 0
-178 -114 0
-178 -113 0
-178 96 0
-177 114 0
-177 96 0
-177 -115 0
-176 114 0
-176 -77 0
-176 115 0
-175 77 0
-175 115 0
-175 -116 0
-174 75 0
-174 115 0
-174 116 0
-173 117 0
-173 115 0
-173 116 0
-172 118 0
-172 -117 0
-172 116 0
-171 -118 0
-171 -119 0
-171 -117 0
-170 119 0
-170 -75 0
-170 120 0
-169 119 0
-169 -121 0
-169 -120 0
-168 94 0
-168 -121 0
-168 -120 0
-167 92 0
-167 94 0
-167 -120 0
-166 119 0
-166 -122 0
-166 121 0
-165 -123 0
-165 122 0
-165 121 0
-164 -123 0
-164 122 0
-164 120 0
-163 -123 0
-163 122 0
-163 88 0
-162 123 0
-162 122 0
-162 -78 0
-161 -75 0
-161 -89 0
-160 -118 0
-160 117 0
-160 80 0
-159 104 0
-159 -110 0
-159 -84 0
-158 123 0
-158 108 0
-158 78 0
-157 118 0
-157 -114 0
-157 86 0
-156 -115 0
-156 -99 0
-156 -85 0
-155 -79 0
-155 -98 0
-154 -103 0
-154 -117 0
-154 112 0
-153 -91 0
-153 -115 0
-153 109 0
-152 -114 0
-152 -83 0
-152 108 0
-151 -122 0
-151 -111 0
-151 120 0
-150 -113 0
-150 -123 0
-150 84 0
-149 102 0
-149 -119 0
-149 -116 0
-148 92 0
-148 82 0
-148 -107 0
-147 82 0
-147 106 0
-147 -99 0
-146 1 0
-146 -74 0
-145 2 0
-145 -76 0
-144 3 0
-144 -77 0
-143 4 0
-143 -79 0
-142 5 0
-142 -80 0
-141 6 0
-141 -83 0
-140 7 0
-140 -84 0
-139 8 0
-139 -85 0
-138 9 0
-138 -88 0
-137 10 0
-137 -91 0
-136 11 0
-136 -92 0
-135 12 0
-135 -93 0
-134 13 0
-134 -95 0
-133 14 0
-133 -97 0
-132 15 0
-132 -102 0
-131 16 0
-131 -103 0
-130 17 0
-130 -104 0
-129 18 0
-129 -107 0
-128 19 0
-128 -110 0
-127 20 0
-127 -111 0
-126 21 0
-126 -117 0
-125 22 0
-125 -118 0
-124 23 0
-124 -123 0
226 225 224 223 222 221 220 219 218 217 216 215 214 213 212 211 210 209 208 207 206 205 204 203 202 201 200 199 198 197 196 195 194 193 192 191 190 189 188 187 186 185 184 183 182 181 180 179 178 177 176 175 174 173 172 171 170 169 168 167 166 165 164 163 162 161 160 159 158 157 156 155 154 153 152 151 150 149 148 147 146 145 144 143 142 141 140 139 138 137 136 135 134 133 132 131 130 129 128 127 126 125 124 78 0
-23 73 0
-22 68 0
-21 67 0
-20 61 0
-19 60 0
-18 57 0
-17 54 0
-16 53 0
-15 52 0
-14 47 0
-13 45 0
-12 43 0
-11 42 0
-10 41 0
-9 38 0
-8 35 0
-7 34 0
-6 33 0
-5 30 0
-4 29 0
-3 27 0
-2 26 0
-1 24 0
-32 -56 49 0
-42 -32 57 0
-52 69 66 0
63 73 -34 0
72 61 -70 0
64 33 -58 0
41 65 -59 0
53 67 -62 0
29 48 0
65 49 35 0
-68 64 -36 0
-73 -58 -28 0
-54 60 34 0
68 -67 -30 0
25 39 0
-73 -72 28 0
73 -72 -38 0
73 -72 -70 0
73 -72 -71 0
-69 72 -71 0
-42 -44 70 0
-44 71 70 0
-69 71 70 0
-69 25 -70 0
68 69 67 0
-68 67 -66 0
-67 -65 -66 0
-25 -65 -66 0
-27 -65 66 0
-64 27 -65 0
-64 -46 65 0
64 63 -46 0
46 -61 62 0
-63 -61 -31 0
-63 31 62 0
-50 -61 -62 0
-50 61 -60 0
50 -60 59 0
60 58 59 0
58 -59 -57 0
-58 56 -57 0
-55 56 57 0
54 -55 -56 0
-40 55 -53 0
40 54 55 0
52 -54 -53 0
52 53 -51 0
-52 -48 -51 0
-48 51 -49 0
50 51 -49 0
-48 -47 49 0
48 45 -47 0
-26 45 -47 0
-46 44 47 0
46 45 47 0
-37 44 -45 0
37 -45 43 0
-41 -44 43 0
42 -32 -43 0
42 -41 -43 0
-42 40 -41 0
37 41 -39 0
-40 38 -39 0
37 38 39 0
36 37 -38 0
36 -37 -35 0
-36 30 -35 0
30 34 35 0
32 -33 -30 0
32 -33 -34 0
32 -24 33 0
-32 29 31 0
-24 29 -31 0
-24 -29 -30 0
-24 -29 30 0
24 -26 -28 0
24 -26 28 0
-25 -27 26 0
-25 27 26 0
24 25 26 0